outputs/case_464.model.txt
special_exam_passed = False
merger_completed = False
net_worth_ratio = 100
supervisory_payment_limit = 168
improvement_plan_failed_after_guidance = False
net_worth = 100
improvement_plan_approved = False
contract_or_major_commitment_made_without_supervisor_consent = False
other_major_financial_impact_without_supervisor_consent = False
profit_loss_accelerated_deterioration = False
unable_to_pay_debt = False
capital_increase_completed = False
agent_company_dissolved_flag = False
unable_to_fulfill_contract = False
capital_adequacy_ratio = 100
financial_or_business_improvement_completed = False
risk_to_insured_rights = False
net_worth_accelerated_deterioration = False
company_registered_change_done = False
payment_limit = 168
agent_registration_revoked = False
financial_or_business_deteriorated = False
agent_suspension_cumulative_years = 3/2
improvement_plan_submitted = False
special_exam_taken = False
other_improper_business_behavior = False
agent_special_exam_passed = False
threat_or_deceive_to_terminate_contract = False
exaggerate_or_false_comparison_with_other_products = False
agent_cumulative_suspension_over_2_years = False
false_or_no_explanation_to_insured = False
agent_company_responsible_for_discipline = False
misappropriate_funds_or_documents = False
recruit_without_company_consent = False
use_or_loan_registration_certificate = False
improper_discount_or_commission = False
exaggerated_or_false_promotion = False
agent_re_registration_required = False
agent_company_dissolved = False
improvement_plan_not_effective = False
obstruct_insured_disclosure = False
agent_registration_revoked_due_to_suspension = False
unauthorized_collection_or_misuse_of_premium = False
capital_level_4_noncompliance = False
solicit_unapproved_insurance_or_financial_products = False
capital_level_2_3_deterioration = False
capital_level = 0
violate_other_relevant_articles = False
solicit_unapproved_insurance_business_entity_or_person = False
spread_false_information_disturb_financial_order = False
agent_improper_behavior = False
improvement_plan_submitted_and_approved = False
supervisory_restrictions = True
penalty = False
induce_insured_to_false_or_no_disclosure = False
supervisory_measures_required = False
sign_or_fill_contract_without_consent = False